 * Physical system:
system='ch3cn'
 
 * Eigensolver algorithm:
solver='pals'
 
 * Calculate spectral bounds using power method:
calcbounds='calc'
 
 * Rank-reduction for 2D nodes:
red2D='SVD'
 
 * Rank-reduction for >2D nodes:
redND='ALS'
 
 * Restart file name (set to 'none' to omit):
resfile='none'
 
 * Number of solver cycles:
ncycle='10'
 
 * Number of power iterations:
npow='10'
 
 * Target reduction rank for eigenstates
psirank='10'
 
 * Number of ALS iterations for psi reduction
psinals='10'
 
 * Target reduction rank for Hamiltonian:
   (set to 0 to bypass H reduction)
hrank='0'
 
 * Number of ALS iterations for H reduction:
hnals='200'
 
 * Algorithm used to sort H terms:
h_sort_alg='pack'
 
 * Printout verbosity less<-{0,1,2,3}->more:
verbosity='0'
 
 * ALS regularization penalty:
alspenalty='  1.000000E-10'
 
 * ALS linear system algorithm:
als_linsys_alg='lu'
 
 * Numerical algorithm (-1 legacy, 0 CPU, 1 GPU):
algo='0'
 
 * Low memory option:
lowmem='1'
 
 * Basis truncation option:
truncation='0'
 
 * Update psi with solutions of subspace problem:
update='T'
 
 * Process top node of tree:
dotopnode='T'
 
 * Solver target energy:
Etarget='  1.302500E+04'
 
 * Solver convergence tolerance:
solvtol='  1.000000E-10'
 
 * Random seed:
rs='0 0 0 0 0 0 0 0 0 0 0 0 0 0 0 0 0 0 0 0 0 0 0 0 0 0 14 2 2022 20 21 13 0 '
