# Resort section: desired order of modes on layer 1, to allow
# arbitrary mode-combination schemes. The numbers entered in
# the basis and layers sections apply to the resorted order

$resort
 1  2  3  4  5  6  7  8  9 10   11 12 13 14 15 16 17 18   19 20 21 22 23 24 25 26   27 30 28 29 31 32 33 34   39 40 45 48   51 52 53 55   59 60 63   35 36 37 38 41 42 43 44   46 47 49 50   54 56 57 58 61   62 64 65 66 /
$end-resort

# Basis section: number of basis functions per DOF/mode
# first line: primitive basis for individual DOFs
# subsequent lines: basis for modes which combine DOFs

$basis
# C-H stretch                   C-C stretch 1             CC stretch 2              CC stretch 3              IP skel 1     IP skel 2     IP skel 3  OOP 1                     OOP 2         OOP 3            OOP 4
# v2:   66                            45                       45                        45                       15            15           10          45                        15             21              15
# v3:  286                           165                      165                       165                       35            35           20         165                        35             56              35
# v4: 1001                           495                      495                       495                       70            70           35         495                        70            126              70
99 99 99 99 99 99 99 99 99 99   99 99 99 99 99 99 99 99   99 99 99 99 99 99 99 99   99 99 99 99 99 99 99 99   99 99 99 99   99 99 99 99   99 99 99   99 99 99 99 99 99 99 99   99 99 99 99   99 99 99 99 99   99 99 99 99 /
14 14 14 14 14 14 14 14 14 14   14 14 14 14 14 14 14 14   14 14 14 14 14 14 14 14   14 14 14 14 14 14 14 14   14 14 14 14   14 14 14 14   14 14 14   14 14 14 14 14 14 14 14   14 14 14 14   14 14 14 14 14   14 14 14 14 / 
 196   196   6  6  196   196     196   196   196   196     196   196   196   196     196   196   196   196     196   196     196   196    14  196     196   196   196   196     196   196     196  14  196     196   196  /
  55    55   6  6   55    55      55    55    55    55      55    55    55    55      55    55    55    55      55    55      55    55    14   55      55    55    55    55      55    55      55  14   28      55    55  /
    256      6  6     256           256         256           256         256           256         256           256           256         192          256         256           256          128    28         256     /
    210      6  6     210           210         210           210         210           210         210           210           210         120          210         210           210           84    28         210     /
         256       256                    256                       256                       256                 210           210         120                256                 210             256            210     /
         252       252                    165                       165                       165                 210           210         120                165                 210             252            210     /
128 /
$end-basis

# Layers section: number of DOFs/modes to combine from previous layer
# The first (primitive basis) layer is implied, with 1,1,...,1, so
# input begins with the second layer

$layers
1 1 1 1 1 1 1 1 1 1   1 1 1 1 1 1 1 1   1 1 1 1 1 1 1 1  1 1 1 1 1 1 1 1  1 1 1 1  1 1 1 1  1 1 1  1 1 1 1 1 1 1 1  1 1 1 1  1 1 1 1 1  1 1 1 1 /
 2   2  1 1  2   2     2   2   2   2     2   2   2   2    2   2   2   2    2   2    2   2   1  2    2   2   2   2    2   2    2  1  2    2   2  /
 1   1  1 1  1   1     1   1   1   1     1   1   1   1    1   1   1   1    1   1    1   1   1  1    1   1   1   1    1   1    1  1  1    1   1  /
   2    1 1    2         2       2         2       2        2       2        2        2      2        2       2        2       2    1      2    /
   1    1 1    1         1       1         1       1        1       1        1        1      1        1       1        1       1    1      1    /
      2      2               2                 2                2            1        1      1            2            1         2         1    /
      1      1               1                 1                1            1        1      1            1            1         1         1    /
12 /
$end-layers

# Truncate section: for truncation nodes list basis truncation criteria
# format: INTEGER  INTEGER    INTEGER  INTEGER  INTEGER /
#           layer     node  max-nmode  max-sum   max-qn /
# NOTES:
# * list only truncation nodes in this section (other nodes -> error)
# * truncation nodes that are not listed follow rules in 'CP.inp'
# * set [max-nmode,max-sum,max-qn] to <0 to include full index range
$truncate
4  1 -1 9 -1 /
4  2 -1 9 -1 /
4  5 -1 9 -1 /
4  6 -1 9 -1 /
4  7 -1 9 -1 /
4  8 -1 9 -1 /
4  9 -1 9 -1 /
4 10 -1 9 -1 /
4 11 -1 9 -1 /
4 12 -1 9 -1 /
4 13 -1 9 -1 /
4 14 -1 9 -1 /
4 15 -1 9 -1 /
4 16 -1 9 -1 /
4 17 -1 9 -1 /
4 18 -1 9 -1 /
4 19 -1 9 -1 /
4 20 -1 9 -1 /
4 21 -1 9 -1 /
4 22 -1 9 -1 /
4 24 -1 9 -1 /
4 25 -1 9 -1 /
4 26 -1 9 -1 /
4 27 -1 9 -1 /
4 28 -1 9 -1 /
4 29 -1 9 -1 /
4 30 -1 9 -1 /
4 31 -1 9 -1 /
4 33 -1 9 -1 /
4 34 -1 9 -1 /
4 35 -1 9 -1 /
6  1 3 5 -1 /
6  4 3 5 -1 /
6  5 3 5 -1 /
6  6 3 5 -1 /
6  7 3 5 -1 /
6  8 3 5 -1 /
6  9 3 5 -1 /
6 10 3 5 -1 /
6 11 3 5 -1 /
6 12 3 5 -1 /
6 13 3 6 -1 /
6 14 3 5 -1 /
6 15 3 5 -1 /
6 16 3 5 -1 /
6 17 3 6 -1 /
6 19 3 5 -1 /
8  1 3 5 -1 /
8  2 3 5 -1 /
8  3 3 3 -1 /
8  4 3 3 -1 /
8  5 3 3 -1 /
8  9 3 3 -1 /
8 11 3 5 -1 /
$end-truncate

